p cnf 39 84
1 4 7 0
-1 -4 0
-1 -7 0
-4 -7 0
2 5 8 0
-2 -5 0
-2 -8 0
-5 -8 0
3 6 9 0
-3 -6 0
-3 -9 0
-6 -9 0
-1 10 11 0
-10 1 0
-11 1 0
-2 12 13 0
-12 2 0
-13 2 0
-3 14 15 0
-14 3 0
-15 3 0
-1 12 14 0
-12 1 0
-14 1 0
-2 10 15 0
-10 2 0
-15 2 0
-3 11 13 0
-11 3 0
-13 3 0
-4 16 17 0
-16 4 0
-17 4 0
-5 18 19 0
-18 5 0
-19 5 0
-6 20 21 0
-20 6 0
-21 6 0
-4 18 20 0
-18 4 0
-20 4 0
-5 16 21 0
-16 5 0
-21 5 0
-6 17 19 0
-17 6 0
-19 6 0
-7 22 23 0
-22 7 0
-23 7 0
-8 24 25 0
-24 8 0
-25 8 0
-9 26 27 0
-26 9 0
-27 9 0
-7 24 26 0
-24 7 0
-26 7 0
-8 22 27 0
-22 8 0
-27 8 0
-9 23 25 0
-23 9 0
-25 9 0
-10 37 -38 2 0
-11 37 -39 2 0
-12 38 -37 2 0
-13 38 -39 2 0
-14 39 -37 2 0
-15 39 -38 2 0
-16 37 -38 2 0
-17 37 -39 2 0
-18 38 -37 2 0
-19 38 -39 2 0
-20 39 -37 2 0
-21 39 -38 2 0
-22 37 -38 2 0
-23 37 -39 2 0
-24 38 -37 2 0
-25 38 -39 2 0
-26 39 -37 2 0
-27 39 -38 2 0
